0
Node Left Objective IInf Best_Integer Best_Bound ItCnt Gap
0 0 0.0000 27 0.0000 17
0+ 0 nan nan 938.8131 0.0000 nan 100.00%
0+ 0 nan nan 140.3386 0.0000 nan 100.00%
0 2 0.0000 27 140.3386 0.0000 17 100.00%
CPXPARAM_MIP_Cuts_Covers 0
1
Node Left Objective IInf Best_Integer Best_Bound ItCnt Gap
0 0 0.0000 11 0.0000 17
0+ 0 nan nan 339.1158 0.0000 nan 100.00%
0+ 0 nan nan 305.9238 0.0000 nan 100.00%
0 2 0.0000 11 305.9238 0.0000 17 100.00%
CPXPARAM_MIP_Cuts_Covers 0
2
Node Left Objective IInf Best_Integer Best_Bound ItCnt Gap
0 0 0.0000 28 0.0000 17
0+ 0 nan nan 1173.5814 0.0000 nan 100.00%
0 2 0.0000 28 1173.5814 0.0000 17 100.00%
CPXPARAM_MIP_Cuts_Covers 0
3
Node Left Objective IInf Best_Integer Best_Bound ItCnt Gap
0 0 0.0000 15 0.0000 17
0+ 0 nan nan 326.4207 0.0000 nan 100.00%
0+ 0 nan nan 279.0592 0.0000 nan 100.00%
0+ 0 nan nan 234.0154 0.0000 nan 100.00%
0 2 0.0000 15 234.0154 0.0000 17 100.00%
CPXPARAM_MIP_Cuts_Covers 0
4
Node Left Objective IInf Best_Integer Best_Bound ItCnt Gap
0 0 0.0000 10 0.0000 17
0+ 0 nan nan 478.5216 0.0000 nan 100.00%
0+ 0 nan nan 398.0083 0.0000 nan 100.00%
0 0 -1.00000e+75 0 398.0083 0.0000 17 100.00%
0 2 0.0000 10 398.0083 0.0000 17 100.00%
CPXPARAM_MIP_Cuts_Covers 0
5
Node Left Objective IInf Best_Integer Best_Bound ItCnt Gap
0 0 0.0000 29 0.0000 17
0+ 0 nan nan 803.7695 0.0000 nan 100.00%
0+ 0 nan nan 355.5423 0.0000 nan 100.00%
0 2 0.0000 29 355.5423 0.0000 17 100.00%
CPXPARAM_MIP_Cuts_Covers 0
6
Node Left Objective IInf Best_Integer Best_Bound ItCnt Gap
0 0 0.0000 21 0.0000 17
0+ 0 nan nan 667.7910 0.0000 nan 100.00%
0+ 0 nan nan 319.1969 0.0000 nan 100.00%
0+ 0 nan nan 281.0234 0.0000 nan 100.00%
0 0 -1.00000e+75 0 281.0234 0.0000 17 100.00%
0 2 0.0000 21 281.0234 0.0000 17 100.00%
CPXPARAM_MIP_Cuts_Covers 0
7
Node Left Objective IInf Best_Integer Best_Bound ItCnt Gap
0 0 0.0000 28 0.0000 17
0+ 0 nan nan 850.7058 0.0000 nan 100.00%
0+ 0 nan nan 497.5773 0.0000 nan 100.00%
0 2 0.0000 28 497.5773 0.0000 17 100.00%
CPXPARAM_MIP_Cuts_Covers 0
8
Node Left Objective IInf Best_Integer Best_Bound ItCnt Gap
0 0 0.0000 28 0.0000 16
0+ 0 nan nan 1285.5458 0.0000 nan 100.00%
0+ 0 nan nan 1160.3712 0.0000 nan 100.00%
0 2 0.0000 28 1160.3712 0.0000 16 100.00%
CPXPARAM_MIP_Cuts_Covers 0
9
Node Left Objective IInf Best_Integer Best_Bound ItCnt Gap
0 0 0.0000 28 0.0000 16
0+ 0 nan nan 905.7370 0.0000 nan 100.00%
0+ 0 nan nan 454.1161 0.0000 nan 100.00%
0 2 0.0000 28 454.1161 0.0000 16 100.00%
CPXPARAM_MIP_Cuts_Covers 0
10
Node Left Objective IInf Best_Integer Best_Bound ItCnt Gap
0 0 0.0000 28 0.0000 18
0+ 0 nan nan 1201.3851 0.0000 nan 100.00%
0 2 0.0000 28 1201.3851 0.0000 18 100.00%
CPXPARAM_MIP_Cuts_Covers 0
11
Node Left Objective IInf Best_Integer Best_Bound ItCnt Gap
0 0 0.0000 28 0.0000 18
0+ 0 nan nan 995.6573 0.0000 nan 100.00%
0+ 0 nan nan 323.7806 0.0000 nan 100.00%
0 2 0.0000 28 323.7806 0.0000 18 100.00%
CPXPARAM_MIP_Cuts_Covers 0
12
Node Left Objective IInf Best_Integer Best_Bound ItCnt Gap
0 0 0.0000 29 0.0000 16
0+ 0 nan nan 1103.5671 0.0000 nan 100.00%
0+ 0 nan nan 946.5019 0.0000 nan 100.00%
0 2 0.0000 29 946.5019 0.0000 16 100.00%
CPXPARAM_MIP_Cuts_Covers 0
13
Node Left Objective IInf Best_Integer Best_Bound ItCnt Gap
0 0 0.0000 30 0.0000 18
0+ 0 nan nan 885.9934 0.0000 nan 100.00%
0+ 0 nan nan 263.8090 0.0000 nan 100.00%
0 2 0.0000 30 263.8090 0.0000 18 100.00%
CPXPARAM_MIP_Cuts_Covers 0
14
Node Left Objective IInf Best_Integer Best_Bound ItCnt Gap
0 0 0.0000 29 0.0000 18
0+ 0 nan nan 1103.5570 0.0000 nan 100.00%
0+ 0 nan nan 953.0590 0.0000 nan 100.00%
0 2 0.0000 29 953.0590 0.0000 18 100.00%
CPXPARAM_MIP_Cuts_Covers 0
15
Node Left Objective IInf Best_Integer Best_Bound ItCnt Gap
0 0 0.0000 30 0.0000 18
0+ 0 nan nan 904.1924 0.0000 nan 100.00%
0+ 0 nan nan 337.0944 0.0000 nan 100.00%
0 2 0.0000 30 337.0944 0.0000 18 100.00%
CPXPARAM_MIP_Cuts_Covers 0
16
Node Left Objective IInf Best_Integer Best_Bound ItCnt Gap
0 0 0.0000 29 0.0000 16
0+ 0 nan nan 1089.1526 0.0000 nan 100.00%
0+ 0 nan nan 984.2239 0.0000 nan 100.00%
0 2 0.0000 29 984.2239 0.0000 16 100.00%
CPXPARAM_MIP_Cuts_Covers 0
17
Node Left Objective IInf Best_Integer Best_Bound ItCnt Gap
0 0 0.0000 30 0.0000 18
0+ 0 nan nan 946.0220 0.0000 nan 100.00%
0+ 0 nan nan 320.0453 0.0000 nan 100.00%
0 2 0.0000 30 320.0453 0.0000 18 100.00%
CPXPARAM_MIP_Cuts_Covers 0
18
Node Left Objective IInf Best_Integer Best_Bound ItCnt Gap
0 0 0.0000 29 0.0000 17
0+ 0 nan nan 1085.0621 0.0000 nan 100.00%
0+ 0 nan nan 991.2555 0.0000 nan 100.00%
0 2 0.0000 29 991.2555 0.0000 17 100.00%
CPXPARAM_MIP_Cuts_Covers 0
19
Node Left Objective IInf Best_Integer Best_Bound ItCnt Gap
0 0 0.0000 29 0.0000 18
0+ 0 nan nan 957.8379 0.0000 nan 100.00%
0+ 0 nan nan 344.7906 0.0000 nan 100.00%
0 2 0.0000 29 344.7906 0.0000 18 100.00%
CPXPARAM_MIP_Cuts_Covers 0
20
Node Left Objective IInf Best_Integer Best_Bound ItCnt Gap
0 0 0.0000 29 0.0000 17
0+ 0 nan nan 878.7294 0.0000 nan 100.00%
0+ 0 nan nan 448.7157 0.0000 nan 100.00%
0 2 0.0000 29 448.7157 0.0000 17 100.00%
CPXPARAM_MIP_Cuts_Covers 0
21
Node Left Objective IInf Best_Integer Best_Bound ItCnt Gap
0 0 0.0000 29 0.0000 18
0+ 0 nan nan 606.4076 0.0000 nan 100.00%
0+ 0 nan nan 244.3145 0.0000 nan 100.00%
0 2 0.0000 29 244.3145 0.0000 18 100.00%
CPXPARAM_MIP_Cuts_Covers 0
22
Node Left Objective IInf Best_Integer Best_Bound ItCnt Gap
0 0 0.0000 29 0.0000 19
0+ 0 nan nan 901.0984 0.0000 nan 100.00%
0+ 0 nan nan 891.0101 0.0000 nan 100.00%
0 2 0.0000 29 891.0101 0.0000 19 100.00%
CPXPARAM_MIP_Cuts_Covers 0
23
Node Left Objective IInf Best_Integer Best_Bound ItCnt Gap
0 0 0.0000 29 0.0000 19
0+ 0 nan nan 599.6998 0.0000 nan 100.00%
0+ 0 nan nan 393.3450 0.0000 nan 100.00%
0 2 0.0000 29 393.3450 0.0000 19 100.00%
CPXPARAM_MIP_Cuts_Covers 0
24
Node Left Objective IInf Best_Integer Best_Bound ItCnt Gap
0 0 0.0000 29 0.0000 17
0+ 0 nan nan 939.6644 0.0000 nan 100.00%
0 2 0.0000 29 939.6644 0.0000 17 100.00%
CPXPARAM_MIP_Cuts_Covers 0
25
Node Left Objective IInf Best_Integer Best_Bound ItCnt Gap
0 0 0.0000 29 0.0000 18
0+ 0 nan nan 699.1337 0.0000 nan 100.00%
0+ 0 nan nan 380.4769 0.0000 nan 100.00%
0 2 0.0000 29 380.4769 0.0000 18 100.00%
CPXPARAM_MIP_Cuts_Covers 0
26
Node Left Objective IInf Best_Integer Best_Bound ItCnt Gap
0 0 0.0000 29 0.0000 19
0+ 0 nan nan 938.1434 0.0000 nan 100.00%
0+ 0 nan nan 767.0483 0.0000 nan 100.00%
0 2 0.0000 29 767.0483 0.0000 19 100.00%
CPXPARAM_MIP_Cuts_Covers 0
27
Node Left Objective IInf Best_Integer Best_Bound ItCnt Gap
0 0 0.0000 29 0.0000 19
0+ 0 nan nan 695.3404 0.0000 nan 100.00%
0+ 0 nan nan 465.7400 0.0000 nan 100.00%
0 2 0.0000 29 465.7400 0.0000 19 100.00%
CPXPARAM_MIP_Cuts_Covers 0
28
Node Left Objective IInf Best_Integer Best_Bound ItCnt Gap
0 0 0.0000 30 0.0000 16
0+ 0 nan nan 1316.0757 0.0000 nan 100.00%
0+ 0 nan nan 1174.3008 0.0000 nan 100.00%
0 2 0.0000 30 1174.3008 0.0000 16 100.00%
CPXPARAM_MIP_Cuts_Covers 0
29
Node Left Objective IInf Best_Integer Best_Bound ItCnt Gap
0 0 0.0000 28 0.0000 16
0+ 0 nan nan 968.9340 0.0000 nan 100.00%
0+ 0 nan nan 474.6429 0.0000 nan 100.00%
0 2 0.0000 28 474.6429 0.0000 16 100.00%
CPXPARAM_MIP_Cuts_Covers 0
30
Node Left Objective IInf Best_Integer Best_Bound ItCnt Gap
0 0 0.0000 29 0.0000 17
0+ 0 nan nan 1312.7512 0.0000 nan 100.00%
0+ 0 nan nan 1156.2207 0.0000 nan 100.00%
0 2 0.0000 29 1156.2207 0.0000 17 100.00%
CPXPARAM_MIP_Cuts_Covers 0
31
Node Left Objective IInf Best_Integer Best_Bound ItCnt Gap
0 0 0.0000 26 0.0000 17
0+ 0 nan nan 709.8381 0.0000 nan 100.00%
0+ 0 nan nan 476.3208 0.0000 nan 100.00%
0 2 0.0000 26 476.3208 0.0000 17 100.00%
CPXPARAM_MIP_Cuts_Covers 0
32
Node Left Objective IInf Best_Integer Best_Bound ItCnt Gap
0 0 0.0000 29 0.0000 17
0+ 0 nan nan 1030.0515 0.0000 nan 100.00%
0+ 0 nan nan 801.1518 0.0000 nan 100.00%
0 2 0.0000 29 801.1518 0.0000 17 100.00%
CPXPARAM_MIP_Cuts_Covers 0
33
Node Left Objective IInf Best_Integer Best_Bound ItCnt Gap
0 0 0.0000 28 0.0000 18
0+ 0 nan nan 717.9699 0.0000 nan 100.00%
0+ 0 nan nan 379.4314 0.0000 nan 100.00%
0 2 0.0000 28 379.4314 0.0000 18 100.00%
CPXPARAM_MIP_Cuts_Covers 0
34
Node Left Objective IInf Best_Integer Best_Bound ItCnt Gap
0 0 0.0000 29 0.0000 18
0+ 0 nan nan 1021.8941 0.0000 nan 100.00%
0+ 0 nan nan 501.5580 0.0000 nan 100.00%
0 2 0.0000 29 501.5580 0.0000 18 100.00%
CPXPARAM_MIP_Cuts_Covers 0
35
Node Left Objective IInf Best_Integer Best_Bound ItCnt Gap
0 0 0.0000 29 0.0000 19
0+ 0 nan nan 827.1110 0.0000 nan 100.00%
0+ 0 nan nan 415.1721 0.0000 nan 100.00%
0 2 0.0000 29 415.1721 0.0000 19 100.00%
CPXPARAM_MIP_Cuts_Covers 0
36
Node Left Objective IInf Best_Integer Best_Bound ItCnt Gap
0 0 0.0000 29 0.0000 16
0+ 0 nan nan 894.7095 0.0000 nan 100.00%
0+ 0 nan nan 341.1386 0.0000 nan 100.00%
0 2 0.0000 29 341.1386 0.0000 16 100.00%
CPXPARAM_MIP_Cuts_Covers 0
37
Node Left Objective IInf Best_Integer Best_Bound ItCnt Gap
0 0 0.0000 28 0.0000 17
0+ 0 nan nan 593.1735 0.0000 nan 100.00%
0+ 0 nan nan 214.6568 0.0000 nan 100.00%
0 2 0.0000 28 214.6568 0.0000 17 100.00%
CPXPARAM_MIP_Cuts_Covers 0
38
Node Left Objective IInf Best_Integer Best_Bound ItCnt Gap
0 0 0.0000 28 0.0000 17
0+ 0 nan nan 919.5293 0.0000 nan 100.00%
0+ 0 nan nan 724.2217 0.0000 nan 100.00%
0 2 0.0000 28 724.2217 0.0000 17 100.00%
CPXPARAM_MIP_Cuts_Covers 0
39
Node Left Objective IInf Best_Integer Best_Bound ItCnt Gap
0 0 0.0000 28 0.0000 17
0+ 0 nan nan 624.0818 0.0000 nan 100.00%
0+ 0 nan nan 372.7362 0.0000 nan 100.00%
0 2 0.0000 28 372.7362 0.0000 17 100.00%
CPXPARAM_MIP_Cuts_Covers 0
